results_rootrelaxation/bin012_050_026.srr.sol
solution status: optimal solution found
objective value:                                    0
_var38_                             0.131587500580397 	(obj:0)
_var197_                             0.11524353438269 	(obj:0)
_var316_                            0.105214282397736 	(obj:0)
_var551_                            0.133026883967127 	(obj:0)
_var668_                            0.161953846868179 	(obj:0)
_var692_                             0.22630821377165 	(obj:0)
_var696_                            0.248920462459955 	(obj:0)
_var697_                            0.123183358870779 	(obj:0)
_var698_                            0.136555694850721 	(obj:0)
_var699_                            0.270046896039374 	(obj:0)
_var702_                            0.113246970330131 	(obj:0)
_var705_                            0.533036170311558 	(obj:0)
_var709_                            0.128290848307563 	(obj:0)
_var714_                            0.454287969540791 	(obj:0)
_var717_                          0.00724334865580439 	(obj:0)
_var718_                            0.264614384547523 	(obj:0)
_var719_                           0.0435993871012683 	(obj:0)
_var722_                            0.242977202024421 	(obj:0)
_var723_                           0.0335237033941569 	(obj:0)
_var724_                            0.264150067325998 	(obj:0)
_var726_                            0.145702744114779 	(obj:0)
_var728_                            0.186005478943214 	(obj:0)
_var732_                          0.00297163021776448 	(obj:0)
_var736_                           0.0726192134466258 	(obj:0)
_var738_                            0.180619399173515 	(obj:0)
_var740_                            0.115197102660537 	(obj:0)
_var743_                           0.0625435297395208 	(obj:0)
_var746_                            0.303059850489855 	(obj:0)
_var748_                             0.12587639875563 	(obj:0)
_var749_                           0.0792125179922899 	(obj:0)
_var754_                            0.173886799461392 	(obj:0)
_var756_                            0.218507684450017 	(obj:0)
_var759_                           0.0762873194966789 	(obj:0)
_var762_                            0.164136137809352 	(obj:0)
_var763_                            0.286344430514927 	(obj:0)
_var765_                           0.0327807958397151 	(obj:0)
_var766_                            0.528764451873522 	(obj:0)
_var767_                          0.00872916376468258 	(obj:0)
_var770_                            0.489065329433069 	(obj:0)
_var772_                            0.176997724845615 	(obj:0)
_var773_                           0.0755444119422361 	(obj:0)
_var775_                            0.205646097413754 	(obj:0)
_var776_                           0.0774945442726496 	(obj:0)
_var777_                           0.0143009704229937 	(obj:0)
_var778_                            0.223986627664022 	(obj:0)
_var782_                           0.0741050285555107 	(obj:0)
_var783_                           0.0463388587082669 	(obj:0)
_var785_                             0.16970794446766 	(obj:0)
_var786_                            0.529507359427962 	(obj:0)
_var787_                            0.276036588197056 	(obj:0)
_var789_                           0.0225658169661517 	(obj:0)
_var790_                            0.246784603240933 	(obj:0)
_var794_                            0.421739332311835 	(obj:0)
_var796_                            0.344151924594884 	(obj:0)
_var799_                            0.123694107814457 	(obj:0)
_var802_                            0.131541068858243 	(obj:0)
_var803_                           0.0318057296745156 	(obj:0)
_var805_                            0.161675256535265 	(obj:0)
_var807_                            0.033012954450481 	(obj:0)
_var809_                            0.104239216232526 	(obj:0)
_var810_                           0.0902632678646055 	(obj:0)
_var811_                            0.135487765241213 	(obj:0)
_var812_                           0.0727585086130836 	(obj:0)
_var814_                            0.131262478525328 	(obj:0)
_var822_                           0.0900311092538412 	(obj:0)
